/*********************************************
 * OPL 12.6.0.0 Data
 * Author: Adrian Rodriguez Bazaga, Pau Rodriguez Esmerats
 * Creation Date: 30/11/2017 at 21:43:51
 *********************************************/

nNurses=544;
maxConsec=2;
maxPresence=7;
maxHours=5;
minHours=1;
demand= [118 103 168 181 103 168 181 105 113 71 11 12 16 19 22 17 17 11 11 7 92 158 72 146  ];
